(declare-const income Real)
(declare-const tax_rate Real)
(declare-const capital_gains Real)
(declare-const threshold Real)
(declare-const fee_bl Real)
(declare-const capital_gains_tax Real)
(assert (= tax_rate 0.07))
(assert (= threshold 0))
(assert (= capital_gains_tax (ite (> capital_gains threshold) (* tax_rate capital_gains) 0)))
(assert (= fee_bl capital_gains_tax))